\ LP format - for model browsing. Use MPS format to capture full model detail.
Minimize
  0 B24(0) + 0 B25(0) + 0 B26(0) + 0 B27(0) + 0 B28(0) + 0 B30(0) + 0 B31(0)
   + 0 B32(0) + 0 B33(0) + 0 B35(0) + 0 B36(0) + 0 B37(0) + 0 B38(0)
   + 0 B40(0) + 0 B41(0) + 0 B42(0) + 0 B44(0) + 0 B45(0) + 0 B46(0)
   + 0 B47(0) + 0 B48(0) + 0 B49(0) + 0 B50(0) + 0 B51(0) + 0 B52(0)
   + 0 B53(0) + 0 B54(0) + 0 B55(0) + 0 B56(0) + 0 B58(0) + 0 B59(0)
   + 0 B61(0) + 0 B62(0) + 0 B63(0) + 0 B64(0) + 0 B66(0) + 0 B67(0)
   + 0 B68(0) + 0 B69(0) + 0 B71(0) + 0 B72(0) + 0 B73(0) + 0 B74(0)
   + 0 B75(0) + 0 B76(0) + 0 B77(0) + 0 B78(0) + 0 B80(0) + 0 B81(0)
   + 0 B82(0) + 0 B83(0) + 0 B84(0) + 0 B86(0) + 0 B87(0) + 0 B89(0)
   + 0 B90(0) + 0 B91(0) + 0 B93(0) + 0 B94(0) + 0 B95(0) + 0 B96(0)
   + 0 B97(0) + 0 B98(0) + 0 B99(0) + 0 B100(0) + 0 B101(0) + 0 B103(0)
   + 0 B104(0) + 0 B105(0) + 0 B106(0) + 0 B107(0) + 0 B108(0) + 0 B109(0)
   + 0 B111(0) + 0 B112(0) + 0 B113(0) + 0 B115(0) + 0 B116(0) + 0 B118(0)
   + 0 B120(0) + 0 B121(0) + 0 B122(0) + 0 B123(0) + 0 B124(0) + 0 B125(0)
   + 0 B126(0) + 0 B127(0) + 0 B129(0) + 0 B130(0) + 0 B132(0) + 0 B133(0)
   + 0 B134(0) + 0 B135(0) + 0 B136(0) + 0 B137(0) + 0 B138(0) + 0 B139(0)
   + 0 B140(0) + 0 B141(0) + 0 B142(0) + 0 B143(0) + 0 B144(0) + 0 B145(0)
   + 0 B146(0) + 0 B147(0) + 0 B148(0) + 0 B149(0) + 0 B150(0) + 0 B151(0)
   + 0 B152(0) + 0 B153(0) + 0 B155(0) + 0 B156(0) + 0 B157(0) + 0 B158(0)
   + 0 B160(0) + 0 B161(0) + 0 B162(0) + 0 B164(0) + 0 B165(0) + 0 B166(0)
   + 0 B167(0) + 0 B168(0) + 0 B169(0) + 0 B170(0) + 0 B171(0) + 0 B172(0)
   + 0 B173(0) + 0 B174(0) + 0 B175(0) + 0 B176(0) + 0 B177(0) + 0 B178(0)
   + 0 B179(0) + 0 B180(0) + 0 B181(0) + 0 B183(0) + 0 B184(0) + 0 B185(0)
   + 0 B187(0) + 0 B188(0) + 0 B190(0) + 0 B192(0) + 0 B193(0) + 0 B194(0)
   + 0 B195(0) + 0 B196(0) + 0 B197(0) + 0 B198(0) + 0 B199(0) + 0 B200(0)
   + 0 B201(0) + 0 B202(0) + 0 B203(0) + 0 B204(0) + 0 B206(0) + 0 B207(0)
   + 0 B209(0) + 0 B210(0) + 0 B211(0) + 0 B213(0) + 0 B214(0) + 0 B215(0)
   + 0 B216(0) + 0 B217(0) + 0 B218(0) + 0 B219(0) + 0 B220(0) + 0 B221(0)
   + 0 B222(0) + 0 B223(0) + 0 B224(0) + 0 B225(0) + 0 B226(0) + 0 B228(0)
   + 0 B229(0) + 0 B230(0) + 0 B231(0) + 0 B232(0) + 0 B233(0) + 0 B234(0)
   + 0 B235(0) + 0 B236(0) + 0 B237(0) + 0 B238(0) + 0 B239(0) + 0 B240(0)
   + 0 B241(0) + 0 B242(0) + 0 B243(0) + 0 B244(0) + 0 B245(0) + 0 B246(0)
   + 0 B247(0) + 0 B248(0) + 0 B249(0) + 0 B250(0) + 0 B251(0) + 0 B253(0)
   + 0 B254(0) + 0 B255(0) + 0 B256(0) + 0 B258(0) + 0 B259(0) + 0 B260(0)
   + 0 B261(0) + 0 B263(0) + 0 B264(0) + 0 B265(0) + 0 B266(0) + 0 B267(0)
   + 0 B268(0) + 0 B269(0) + 0 B270(0) + 0 B271(0) + 0 B272(0) + 0 B273(0)
   + 0 B274(0) + 0 B275(0) + 0 B276(0) + 0 B277(0) + 0 B278(0) + 0 B280(0)
   + 0 B281(0) + 0 B282(0) + 0 B284(0) + 0 B285(0) + 0 B286(0) + 0 B287(0)
   + 0 B288(0) + 0 B289(0) + 0 B290(0) + 0 B291(0) + 0 B292(0) + 0 B293(0)
   + 0 B294(0) + 0 B295(0) + 0 B296(0) + 0 B297(0) + 0 B298(0) + 0 B299(0)
   + 0 B300(0) + 0 B301(0) + 0 B302(0) + 0 B303(0) + 0 B304(0) + 0 B305(0)
   + 0 B306(0) + 0 B307(0) + 0 B308(0) + 0 B309(0) + 0 B310(0) + 0 B311(0)
   + 0 B312(0) + 0 B313(0) + 0 B314(0) + 0 B315(0) + 0 B316(0) + 0 B317(0)
   + 0 B318(0) + 0 B319(0) + 0 B320(0) + 0 B321(0) + 0 B322(0) + 0 B323(0)
   + 0 B324(0) + 0 B325(0) + 0 B326(0) + 0 B327(0) + 0 B328(0) + 0 B330(0)
   + 0 B331(0) + 0 B332(0) + 0 B333(0) + 0 B335(0) + 0 B336(0) + 0 B337(0)
   + 0 B338(0) + 0 B339(0) + 0 B340(0) + 0 B341(0) + 0 B342(0) + 0 B343(0)
   + 0 B344(0) + 0 B345(0) + 0 B346(0) + 0 B347(0) + 0 B348(0) + 0 B349(0)
   + 0 B350(0) + 0 B351(0) + 0 B353(0) + 0 B354(0) + 0 B355(0) + 0 B357(0)
   + 0 B358(0) + 0 B359(0) + 0 B360(0) + 0 B361(0) + 0 B362(0) + 0 B363(0)
   + 0 B364(0) + 0 B365(0) + 0 B366(0) + 0 B367(0) + 0 B368(0) + 0 B369(0)
   + 0 B370(0) + 0 B371(0) + 0 B372(0) + 0 B373(0) + 0 B374(0) + 0 B375(0)
   + 0 B376(0) + 0 B377(0) + 0 B379(0) + 0 B380(0) + 0 B382(0) + 0 B384(0)
   + 0 B385(0) + 0 B386(0) + 0 B387(0) + 0 B388(0) + 0 B389(0) + 0 B390(0)
   + 0 B391(0) + 0 B392(0) + 0 B393(0) + 0 B394(0) + 0 B395(0) + 0 B396(0)
   + 0 B397(0) + 0 B398(0) + 0 B399(0) + 0 B400(0) + 0 B401(0) + 0 B402(0)
   + 0 B404(0) + 0 B405(0) + 0 B406(0) + 0 B407(0) + 0 B408(0) + 0 B409(0)
   + 0 B410(0) + 0 B411(0) + 0 B412(0) + 0 B413(0) + 0 B414(0) + 0 B415(0)
   + 0 B416(0) + 0 B417(0) + 0 B418(0) + 0 B419(0) + 0 B420(0) + 0 B421(0)
   + 0 B422(0) + 0 B423(0) + 0 B424(0) + 0 B425(0) + 0 B426(0) + 0 B427(0)
   + 0 B429(0) + 0 B430(0) + 0 B431(0) + 0 B432(0) + 0 B433(0) + 0 B434(0)
   + 0 B435(0) + 0 B436(0) + 0 B437(0) + 0 B438(0) + 0 B439(0) + 0 B440(0)
   + 0 B441(0) + 0 B442(0) + 0 B443(0) + 0 B444(0) + 0 B445(0) + 0 B446(0)
   + 0 B447(0) + 0 B448(0) + 0 B449(0) + 0 B450(0) + 0 B451(0) + 0 B452(0)
   + 0 B453(0) + 0 B455(0) + 0 B456(0) + 0 B457(0) + 0 B458(0) + 0 B459(0)
   + 0 B460(0) + 0 B461(0) + 0 B462(0) + 0 B463(0) + 0 B464(0) + 0 B465(0)
   + 0 B466(0) + 0 B467(0) + 0 B468(0) + 0 B469(0) + 0 B470(0) + 0 B471(0)
   + 0 B472(0) + 0 B473(0) + 0 B474(0) + 0 B475(0) + 0 B476(0) + 0 B478(0)
   + 0 B480(0) + 0 B481(0) + 0 B482(0) + 0 B483(0) + 0 B484(0) + 0 B485(0)
   + 0 B486(0) + 0 B487(0) + 0 B488(0) + 0 B489(0) + 0 B490(0) + 0 B491(0)
   + 0 B492(0) + 0 B493(0) + 0 B494(0) + 0 B495(0) + 0 B496(0) + 0 B497(0)
   + 0 B498(0) + 0 B499(0) + 0 B500(0) + 0 B501(0) + 0 B502(0) + 0 B503(0)
   + 0 B504(0) + 0 B505(0) + 0 B506(0) + 0 B507(0) + 0 B508(0) + 0 B509(0)
   + 0 B510(0) + 0 B511(0) + 0 B512(0) + 0 B513(0) + 0 B514(0) + 0 B515(0)
   + 0 B516(0) + 0 B517(0) + 0 B518(0) + 0 B519(0) + 0 B520(0) + 0 B521(0)
   + 0 B522(0) + 0 B523(0) + 0 B524(0) + 0 B525(0) + 0 B526(0) + 0 B527(0)
   + 0 B528(0) + 0 B529(0) + 0 B530(0) + 0 B531(0) + 0 B532(0) + 0 B533(0)
   + 0 B534(0) + 0 B535(0) + 0 B536(0) + 0 B537(0) + 0 B538(0) + 0 B539(0)
   + 0 B540(0) + 0 B541(0) + 0 B542(0) + 0 B543(0) + 0 B544(0) + 0 B545(0)
   + 0 B546(0) + 0 B547(0) + 0 B548(0) + 0 B549(0) + 0 B550(0) + 0 B551(0)
   + 0 B552(0) + 0 B553(0) + 0 B554(0) + 0 B555(0) + 0 B556(0) + 0 B557(0)
   + 0 B558(0) + 0 B559(0) + 0 B560(0) + 0 B561(0) + 0 B562(0) + 0 B563(0)
   + 0 B564(0) + 0 B565(0) + 0 B566(0) + 0 B567(0) + 0 B568(0) + 0 B569(0)
   + 0 B570(0) + 0 B571(0) + 0 B572(0) + 0 B573(0) + 0 B574(0) + 0 B575(0)
   + 0 B576(0) + 0 B577(0) + 0 B578(0) + 0 B579(0) + 0 B580(0) + 0 B581(0)
   + 0 B582(0) + 0 B583(0) + 0 B584(0) + 0 B585(0) + 0 B586(0) + 0 B587(0)
   + 0 B588(0) + 0 B589(0) + 0 B590(0) + 0 B591(0) + 0 B592(0) + 0 B593(0)
   + 0 B594(0) + 0 B595(0) + 0 B596(0) + 0 B597(0) + 0 B598(0) + 0 B599(0)
   + I624(1) + 0 B625(0) + 0 B626(0) + 0 B627(0) + 0 B628(0) + 0 B630(0)
   + 0 B631(0) + 0 B632(0) + 0 B633(0) + 0 B635(0) + 0 B636(0) + 0 B637(0)
   + 0 B638(0) + 0 B640(0) + 0 B641(0) + 0 B642(0) + 0 B644(0) + 0 B645(0)
   + 0 B646(0) + 0 B647(0)
Subject To
 c0: B0(11) = 1
 c1: B1(11) = 1
 c2: B2(11) = 1
 c3: B3(13) = 1
 c4: B4(8) = 1
 c5: B5(11) = 1
 c6: B6(13) = 1
 c7: B7(11) = 1
 c8: B8(7) = 1
 c9: B9(12) = 1
 c10: B10(12) = 1
 c11: B11(8) = 1
 c12: B12(12) = 1
 c13: B13(12) = 1
 c14: B14(15) = 1
 c15: B15(12) = 1
 c16: B16(12) = 1
 c17: B17(12) = 1
 c18: B18(15) = 1
 c19: B19(11) = 1
 c20: B20(11) = 1
 c21: B21(11) = 1
 c22: B22(11) = 1
 c23: B23(12) = 1
 c24: - 4.32e+06 B0(11) + I600(12) <= 0
 c25: - 4.32e+06 B1(11) + I601(13) <= 0
 c26: - 4.32e+06 B2(11) + I602(13) <= 0
 c27: - 4.32e+06 B3(13) + I603(15) <= 0
 c28: - 4.32e+06 B4(8) + I604(11) <= 0
 c29: - 4.32e+06 B5(11) + I605(12) <= 0
 c30: - 4.32e+06 B6(13) + I606(15) <= 0
 c31: - 4.32e+06 B7(11) + I607(13) <= 0
 c32: - 4.32e+06 B8(7) + I608(9) <= 0
 c33: - 4.32e+06 B9(12) + I609(15) <= 0
 c34: - 4.32e+06 B10(12) + I610(12) <= 0
 c35: - 4.32e+06 B11(8) + I611(9) <= 0
 c36: - 4.32e+06 B12(12) + I612(13) <= 0
 c37: - 4.32e+06 B13(12) + I613(13) <= 0
 c38: - 4.32e+06 B14(15) + I614(17) <= 0
 c39: - 4.32e+06 B15(12) + I615(12) <= 0
 c40: - 4.32e+06 B16(12) + I616(13) <= 0
 c41: - 4.32e+06 B17(12) + I617(13) <= 0
 c42: - 4.32e+06 B18(15) + I618(17) <= 0
 c43: - 4.32e+06 B19(11) + I619(12) <= 0
 c44: - 4.32e+06 B20(11) + I620(13) <= 0
 c45: - 4.32e+06 B21(11) + I621(13) <= 0
 c46: - 4.32e+06 B22(11) + I622(13) <= 0
 c47: - 4.32e+06 B23(12) + I623(15) <= 0
 c48: - 1440 B0(11) - I600(12) + I601(13) >= 0
 c49: - 2880 B1(11) - I601(13) + I602(13) >= 0
 c50: - 2880 B2(11) - I602(13) + I603(15) >= 0
 c51: - 1440 B3(13) - I603(15) + I604(11) >= 0
 c52: - 1440 B5(11) - I605(12) + I606(15) >= 0
 c53: - 1440 B6(13) - I606(15) + I607(13) >= 0
 c54: - 1440 B7(11) - I607(13) + I608(9) >= 0
 c55: - 1440 B8(7) - I608(9) + I609(15) >= 0
 c56: - 1440 B10(12) - I610(12) + I611(9) >= 0
 c57: - 2880 B11(8) - I611(9) + I612(13) >= 0
 c58: - 4320 B12(12) - I612(13) + I613(13) >= 0
 c59: - 1440 B13(12) - I613(13) + I614(17) >= 0
 c60: - 1440 B15(12) - I615(12) + I616(13) >= 0
 c61: - 2880 B16(12) - I616(13) + I617(13) >= 0
 c62: - 2880 B17(12) - I617(13) + I618(17) >= 0
 c63: - 2880 B19(11) - I619(12) + I620(13) >= 0
 c64: - 1440 B20(11) - I620(13) + I621(13) >= 0
 c65: - 1440 B21(11) - I621(13) + I622(13) >= 0
 c66: - 1440 B22(11) - I622(13) + I623(15) >= 0
 c67: - 4.32e+06 B0(11) - 4.32e+06 B5(11) - 4.32e+06 B29(2) + I600(12)
   - I605(12) >= -1.2958546e+07
 c68: - 4.32e+06 B0(11) - 4.32e+06 B5(11) + 4.32e+06 B29(2) - I600(12)
   + I605(12) >= -8.638541e+06
 c69: - 4.32e+06 B0(11) - 4.32e+06 B10(12) - 4.32e+06 B34(2) + I600(12)
   - I610(12) >= -1.295855e+07
 c70: - 4.32e+06 B0(11) - 4.32e+06 B10(12) + 4.32e+06 B34(2) - I600(12)
   + I610(12) >= -8.638528e+06
 c71: - 4.32e+06 B0(11) - 4.32e+06 B15(12) - 4.32e+06 B39(2) + I600(12)
   - I615(12) >= -1.2958539e+07
 c72: - 4.32e+06 B0(11) - 4.32e+06 B15(12) + 4.32e+06 B39(2) - I600(12)
   + I615(12) >= -8.638544e+06
 c73: - 4.32e+06 B0(11) - 4.32e+06 B19(11) - 4.32e+06 B43(2) + I600(12)
   - I619(12) >= -1.2957087e+07
 c74: - 4.32e+06 B0(11) - 4.32e+06 B19(11) + 4.32e+06 B43(2) - I600(12)
   + I619(12) >= -8.638541e+06
 c75: - 4.32e+06 B1(11) - 4.32e+06 B9(12) - 4.32e+06 B57(2) + I601(13)
   - I609(15) >= -1.2958543e+07
 c76: - 4.32e+06 B1(11) - 4.32e+06 B9(12) + 4.32e+06 B57(2) - I601(13)
   + I609(15) >= -8.637098e+06
 c77: - 4.32e+06 B1(11) - 4.32e+06 B12(12) - 4.32e+06 B60(2) + I601(13)
   - I612(13) >= -1.2955669e+07
 c78: - 4.32e+06 B1(11) - 4.32e+06 B12(12) + 4.32e+06 B60(2) - I601(13)
   + I612(13) >= -8.637098e+06
 c79: - 4.32e+06 B1(11) - 4.32e+06 B17(12) - 4.32e+06 B65(2) + I601(13)
   - I617(13) >= -1.2957095e+07
 c80: - 4.32e+06 B1(11) - 4.32e+06 B17(12) + 4.32e+06 B65(2) - I601(13)
   + I617(13) >= -8.637116e+06
 c81: - 4.32e+06 B1(11) - 4.32e+06 B22(11) - 4.32e+06 B70(2) + I601(13)
   - I622(13) >= -1.295854e+07
 c82: - 4.32e+06 B1(11) - 4.32e+06 B22(11) + 4.32e+06 B70(2) - I601(13)
   + I622(13) >= -8.637107e+06
 c83: - 4.32e+06 B2(11) - 4.32e+06 B7(11) - 4.32e+06 B79(2) + I602(13)
   - I607(13) >= -1.2958548e+07
 c84: - 4.32e+06 B2(11) - 4.32e+06 B7(11) + 4.32e+06 B79(2) - I602(13)
   + I607(13) >= -8.637102e+06
 c85: - 4.32e+06 B2(11) - 4.32e+06 B13(12) - 4.32e+06 B85(2) + I602(13)
   - I613(13) >= -1.2958536e+07
 c86: - 4.32e+06 B2(11) - 4.32e+06 B13(12) + 4.32e+06 B85(2) - I602(13)
   + I613(13) >= -8.637085e+06
 c87: - 4.32e+06 B2(11) - 4.32e+06 B16(12) - 4.32e+06 B88(2) + I602(13)
   - I616(13) >= -1.2957087e+07
 c88: - 4.32e+06 B2(11) - 4.32e+06 B16(12) + 4.32e+06 B88(2) - I602(13)
   + I616(13) >= -8.637091e+06
 c89: - 4.32e+06 B2(11) - 4.32e+06 B20(11) - 4.32e+06 B92(2) + I602(13)
   - I620(13) >= -1.2958543e+07
 c90: - 4.32e+06 B2(11) - 4.32e+06 B20(11) + 4.32e+06 B92(2) - I602(13)
   + I620(13) >= -8.637098e+06
 c91: - 4.32e+06 B3(13) - 4.32e+06 B6(13) - 4.32e+06 B102(2) + I603(15)
   - I606(15) >= -1.2958546e+07
 c92: - 4.32e+06 B3(13) - 4.32e+06 B6(13) + 4.32e+06 B102(2) - I603(15)
   + I606(15) >= -8.638543e+06
 c93: - 4.32e+06 B3(13) - 4.32e+06 B14(15) - 4.32e+06 B110(2) + I603(15)
   - I614(17) >= -1.2958539e+07
 c94: - 4.32e+06 B3(13) - 4.32e+06 B14(15) + 4.32e+06 B110(2) - I603(15)
   + I614(17) >= -8.638546e+06
 c95: - 4.32e+06 B3(13) - 4.32e+06 B18(15) - 4.32e+06 B114(2) + I603(15)
   - I618(17) >= -1.2957094e+07
 c96: - 4.32e+06 B3(13) - 4.32e+06 B18(15) + 4.32e+06 B114(2) - I603(15)
   + I618(17) >= -8.638541e+06
 c97: - 4.32e+06 B3(13) - 4.32e+06 B21(11) - 4.32e+06 B117(2) + I603(15)
   - I621(13) >= -1.2958552e+07
 c98: - 4.32e+06 B3(13) - 4.32e+06 B21(11) + 4.32e+06 B117(2) - I603(15)
   + I621(13) >= -8.638531e+06
 c99: - 4.32e+06 B3(13) - 4.32e+06 B23(12) - 4.32e+06 B119(2) + I603(15)
   - I623(15) >= -1.295856e+07
 c100: - 4.32e+06 B3(13) - 4.32e+06 B23(12) + 4.32e+06 B119(2) - I603(15)
   + I623(15) >= -8.638556e+06
 c101: - 4.32e+06 B4(8) - 4.32e+06 B8(7) - 4.32e+06 B128(2) + I604(11)
   - I608(9) >= -1.2958531e+07
 c102: - 4.32e+06 B4(8) - 4.32e+06 B8(7) + 4.32e+06 B128(2) - I604(11)
   + I608(9) >= -8.638526e+06
 c103: - 4.32e+06 B4(8) - 4.32e+06 B11(8) - 4.32e+06 B131(2) + I604(11)
   - I611(9) >= -1.2957103e+07
 c104: - 4.32e+06 B4(8) - 4.32e+06 B11(8) + 4.32e+06 B131(2) - I604(11)
   + I611(9) >= -8.638554e+06
 c105: - 4.32e+06 B5(11) - 4.32e+06 B10(12) - 4.32e+06 B154(2) + I605(12)
   - I610(12) >= -1.2958532e+07
 c106: - 4.32e+06 B5(11) - 4.32e+06 B10(12) + 4.32e+06 B154(2) - I605(12)
   + I610(12) >= -8.638558e+06
 c107: - 4.32e+06 B5(11) - 4.32e+06 B15(12) - 4.32e+06 B159(2) + I605(12)
   - I615(12) >= -1.2958533e+07
 c108: - 4.32e+06 B5(11) - 4.32e+06 B15(12) + 4.32e+06 B159(2) - I605(12)
   + I615(12) >= -8.638559e+06
 c109: - 4.32e+06 B5(11) - 4.32e+06 B19(11) - 4.32e+06 B163(2) + I605(12)
   - I619(12) >= -1.2957118e+07
 c110: - 4.32e+06 B5(11) - 4.32e+06 B19(11) + 4.32e+06 B163(2) - I605(12)
   + I619(12) >= -8.638524e+06
 c111: - 4.32e+06 B6(13) - 4.32e+06 B14(15) - 4.32e+06 B182(2) + I606(15)
   - I614(17) >= -1.2958536e+07
 c112: - 4.32e+06 B6(13) - 4.32e+06 B14(15) + 4.32e+06 B182(2) - I606(15)
   + I614(17) >= -8.638536e+06
 c113: - 4.32e+06 B6(13) - 4.32e+06 B18(15) - 4.32e+06 B186(2) + I606(15)
   - I618(17) >= -1.2957115e+07
 c114: - 4.32e+06 B6(13) - 4.32e+06 B18(15) + 4.32e+06 B186(2) - I606(15)
   + I618(17) >= -8.638538e+06
 c115: - 4.32e+06 B6(13) - 4.32e+06 B21(11) - 4.32e+06 B189(2) + I606(15)
   - I621(13) >= -1.2958525e+07
 c116: - 4.32e+06 B6(13) - 4.32e+06 B21(11) + 4.32e+06 B189(2) - I606(15)
   + I621(13) >= -8.638546e+06
 c117: - 4.32e+06 B6(13) - 4.32e+06 B23(12) - 4.32e+06 B191(2) + I606(15)
   - I623(15) >= -1.295855e+07
 c118: - 4.32e+06 B6(13) - 4.32e+06 B23(12) + 4.32e+06 B191(2) - I606(15)
   + I623(15) >= -8.638538e+06
 c119: - 4.32e+06 B7(11) - 4.32e+06 B13(12) - 4.32e+06 B205(2) + I607(13)
   - I613(13) >= -1.295854e+07
 c120: - 4.32e+06 B7(11) - 4.32e+06 B13(12) + 4.32e+06 B205(2) - I607(13)
   + I613(13) >= -8.638556e+06
 c121: - 4.32e+06 B7(11) - 4.32e+06 B16(12) - 4.32e+06 B208(2) + I607(13)
   - I616(13) >= -1.2957099e+07
 c122: - 4.32e+06 B7(11) - 4.32e+06 B16(12) + 4.32e+06 B208(2) - I607(13)
   + I616(13) >= -8.638545e+06
 c123: - 4.32e+06 B7(11) - 4.32e+06 B20(11) - 4.32e+06 B212(2) + I607(13)
   - I620(13) >= -1.2958526e+07
 c124: - 4.32e+06 B7(11) - 4.32e+06 B20(11) + 4.32e+06 B212(2) - I607(13)
   + I620(13) >= -8.638548e+06
 c125: - 4.32e+06 B8(7) - 4.32e+06 B11(8) - 4.32e+06 B227(2) + I608(9)
   - I611(9) >= -1.2957114e+07
 c126: - 4.32e+06 B8(7) - 4.32e+06 B11(8) + 4.32e+06 B227(2) - I608(9)
   + I611(9) >= -8.638544e+06
 c127: - 4.32e+06 B9(12) - 4.32e+06 B12(12) - 4.32e+06 B252(2) + I609(15)
   - I612(13) >= -1.2955668e+07
 c128: - 4.32e+06 B9(12) - 4.32e+06 B12(12) + 4.32e+06 B252(2) - I609(15)
   + I612(13) >= -8.638535e+06
 c129: - 4.32e+06 B9(12) - 4.32e+06 B17(12) - 4.32e+06 B257(2) + I609(15)
   - I617(13) >= -1.2957098e+07
 c130: - 4.32e+06 B9(12) - 4.32e+06 B17(12) + 4.32e+06 B257(2) - I609(15)
   + I617(13) >= -8.638541e+06
 c131: - 4.32e+06 B9(12) - 4.32e+06 B22(11) - 4.32e+06 B262(2) + I609(15)
   - I622(13) >= -1.2958541e+07
 c132: - 4.32e+06 B9(12) - 4.32e+06 B22(11) + 4.32e+06 B262(2) - I609(15)
   + I622(13) >= -8.63853e+06
 c133: - 4.32e+06 B10(12) - 4.32e+06 B15(12) - 4.32e+06 B279(2) + I610(12)
   - I615(12) >= -1.295855e+07
 c134: - 4.32e+06 B10(12) - 4.32e+06 B15(12) + 4.32e+06 B279(2) - I610(12)
   + I615(12) >= -8.638541e+06
 c135: - 4.32e+06 B10(12) - 4.32e+06 B19(11) - 4.32e+06 B283(2) + I610(12)
   - I619(12) >= -1.295711e+07
 c136: - 4.32e+06 B10(12) - 4.32e+06 B19(11) + 4.32e+06 B283(2) - I610(12)
   + I619(12) >= -8.638548e+06
 c137: - 4.32e+06 B12(12) - 4.32e+06 B17(12) - 4.32e+06 B329(2) + I612(13)
   - I617(13) >= -1.2957114e+07
 c138: - 4.32e+06 B12(12) - 4.32e+06 B17(12) + 4.32e+06 B329(2) - I612(13)
   + I617(13) >= -8.635666e+06
 c139: - 4.32e+06 B12(12) - 4.32e+06 B22(11) - 4.32e+06 B334(2) + I612(13)
   - I622(13) >= -1.2958524e+07
 c140: - 4.32e+06 B12(12) - 4.32e+06 B22(11) + 4.32e+06 B334(2) - I612(13)
   + I622(13) >= -8.635669e+06
 c141: - 4.32e+06 B13(12) - 4.32e+06 B16(12) - 4.32e+06 B352(2) + I613(13)
   - I616(13) >= -1.295711e+07
 c142: - 4.32e+06 B13(12) - 4.32e+06 B16(12) + 4.32e+06 B352(2) - I613(13)
   + I616(13) >= -8.638558e+06
 c143: - 4.32e+06 B13(12) - 4.32e+06 B20(11) - 4.32e+06 B356(2) + I613(13)
   - I620(13) >= -1.2958535e+07
 c144: - 4.32e+06 B13(12) - 4.32e+06 B20(11) + 4.32e+06 B356(2) - I613(13)
   + I620(13) >= -8.638536e+06
 c145: - 4.32e+06 B14(15) - 4.32e+06 B18(15) - 4.32e+06 B378(2) + I614(17)
   - I618(17) >= -1.2957091e+07
 c146: - 4.32e+06 B14(15) - 4.32e+06 B18(15) + 4.32e+06 B378(2) - I614(17)
   + I618(17) >= -8.63854e+06
 c147: - 4.32e+06 B14(15) - 4.32e+06 B21(11) - 4.32e+06 B381(2) + I614(17)
   - I621(13) >= -1.2958523e+07
 c148: - 4.32e+06 B14(15) - 4.32e+06 B21(11) + 4.32e+06 B381(2) - I614(17)
   + I621(13) >= -8.638526e+06
 c149: - 4.32e+06 B14(15) - 4.32e+06 B23(12) - 4.32e+06 B383(2) + I614(17)
   - I623(15) >= -1.2958534e+07
 c150: - 4.32e+06 B14(15) - 4.32e+06 B23(12) + 4.32e+06 B383(2) - I614(17)
   + I623(15) >= -8.638523e+06
 c151: - 4.32e+06 B15(12) - 4.32e+06 B19(11) - 4.32e+06 B403(2) + I615(12)
   - I619(12) >= -1.2957096e+07
 c152: - 4.32e+06 B15(12) - 4.32e+06 B19(11) + 4.32e+06 B403(2) - I615(12)
   + I619(12) >= -8.638557e+06
 c153: - 4.32e+06 B16(12) - 4.32e+06 B20(11) - 4.32e+06 B428(2) + I616(13)
   - I620(13) >= -1.2958531e+07
 c154: - 4.32e+06 B16(12) - 4.32e+06 B20(11) + 4.32e+06 B428(2) - I616(13)
   + I620(13) >= -8.637118e+06
 c155: - 4.32e+06 B17(12) - 4.32e+06 B22(11) - 4.32e+06 B454(2) + I617(13)
   - I622(13) >= -1.2958559e+07
 c156: - 4.32e+06 B17(12) - 4.32e+06 B22(11) + 4.32e+06 B454(2) - I617(13)
   + I622(13) >= -8.637091e+06
 c157: - 4.32e+06 B18(15) - 4.32e+06 B21(11) - 4.32e+06 B477(2) + I618(17)
   - I621(13) >= -1.2958527e+07
 c158: - 4.32e+06 B18(15) - 4.32e+06 B21(11) + 4.32e+06 B477(2) - I618(17)
   + I621(13) >= -8.637106e+06
 c159: - 4.32e+06 B18(15) - 4.32e+06 B23(12) - 4.32e+06 B479(2) + I618(17)
   - I623(15) >= -1.2958553e+07
 c160: - 4.32e+06 B18(15) - 4.32e+06 B23(12) + 4.32e+06 B479(2) - I618(17)
   + I623(15) >= -8.637096e+06
 c161: I600(12) >= 0
 c162: I600(12) >= 0
 c163: I601(13) >= 0
 c164: I601(13) >= 0
 c165: I602(13) >= 0
 c166: I602(13) >= 0
 c167: I603(15) >= 0
 c168: I603(15) >= 0
 c169: I604(11) >= 0
 c170: I604(11) >= 0
 c171: I605(12) >= 0
 c172: I605(12) >= 0
 c173: I606(15) >= 0
 c174: I606(15) >= 0
 c175: I607(13) >= 0
 c176: I607(13) >= 0
 c177: I608(9) >= 0
 c178: I608(9) >= 0
 c179: I609(15) >= 0
 c180: I609(15) >= 0
 c181: - 2880 B10(12) + I610(12) >= 0
 c182: I610(12) >= 0
 c183: - 2880 B11(8) + I611(9) >= 0
 c184: I611(9) >= 0
 c185: - 2880 B12(12) + I612(13) >= 0
 c186: I612(13) >= 0
 c187: - 2880 B13(12) + I613(13) >= 0
 c188: I613(13) >= 0
 c189: - 2880 B14(15) + I614(17) >= 0
 c190: I614(17) >= 0
 c191: - 1440 B15(12) + I615(12) >= 0
 c192: I615(12) >= 0
 c193: - 1440 B16(12) + I616(13) >= 0
 c194: I616(13) >= 0
 c195: - 1440 B17(12) + I617(13) >= 0
 c196: I617(13) >= 0
 c197: - 1440 B18(15) + I618(17) >= 0
 c198: I618(17) >= 0
 c199: I619(12) >= 0
 c200: I619(12) >= 0
 c201: I620(13) >= 0
 c202: I620(13) >= 0
 c203: I621(13) >= 0
 c204: I621(13) >= 0
 c205: I622(13) >= 0
 c206: I622(13) >= 0
 c207: I623(15) >= 0
 c208: I623(15) >= 0
 c209: 1440 B4(8) + I604(11) - 4.32e+06 B629(3) >= -4.313448e+06
 c210: 1440 B4(8) + I604(11) - 4.32e+06 B629(3) <= 6552
 c211: 1440 B9(12) + I609(15) - 4.32e+06 B634(3) >= -4.312944e+06
 c212: 1440 B9(12) + I609(15) - 4.32e+06 B634(3) <= 7056
 c213: 1440 B14(15) + I614(17) - 4.32e+06 B639(3) >= -4.31244e+06
 c214: 1440 B14(15) + I614(17) - 4.32e+06 B639(3) <= 7560
 c215: 2880 B18(15) + I618(17) - 4.32e+06 B643(3) >= -4.311937e+06
 c216: 2880 B18(15) + I618(17) - 4.32e+06 B643(3) <= 8063
 c217: 1440 B23(12) + I623(15) - 4.32e+06 B648(3) >= -4.312944e+06
 c218: 1440 B23(12) + I623(15) - 4.32e+06 B648(3) <= 7056
 c219: - I604(11) - I609(15) - I614(17) - I618(17) - I623(15) + I624(1)
   + 5112 B629(3) + 5616 B634(3) + 6120 B639(3) + 5183 B643(3)
   + 5616 B648(3) >= 0
Bounds
Binaries
 B0(11) B1(11) B2(11) B3(13) B4(8) B5(11) B6(13) B7(11) B8(7) B9(12)
 B10(12) B11(8) B12(12) B13(12) B14(15) B15(12) B16(12) B17(12) B18(15)
 B19(11) B20(11) B21(11) B22(11) B23(12) B24(0) B25(0) B26(0) B27(0) B28(0)
 B29(2) B30(0) B31(0) B32(0) B33(0) B34(2) B35(0) B36(0) B37(0) B38(0)
 B39(2) B40(0) B41(0) B42(0) B43(2) B44(0) B45(0) B46(0) B47(0) B48(0)
 B49(0) B50(0) B51(0) B52(0) B53(0) B54(0) B55(0) B56(0) B57(2) B58(0)
 B59(0) B60(2) B61(0) B62(0) B63(0) B64(0) B65(2) B66(0) B67(0) B68(0)
 B69(0) B70(2) B71(0) B72(0) B73(0) B74(0) B75(0) B76(0) B77(0) B78(0)
 B79(2) B80(0) B81(0) B82(0) B83(0) B84(0) B85(2) B86(0) B87(0) B88(2)
 B89(0) B90(0) B91(0) B92(2) B93(0) B94(0) B95(0) B96(0) B97(0) B98(0)
 B99(0) B100(0) B101(0) B102(2) B103(0) B104(0) B105(0) B106(0) B107(0)
 B108(0) B109(0) B110(2) B111(0) B112(0) B113(0) B114(2) B115(0) B116(0)
 B117(2) B118(0) B119(2) B120(0) B121(0) B122(0) B123(0) B124(0) B125(0)
 B126(0) B127(0) B128(2) B129(0) B130(0) B131(2) B132(0) B133(0) B134(0)
 B135(0) B136(0) B137(0) B138(0) B139(0) B140(0) B141(0) B142(0) B143(0)
 B144(0) B145(0) B146(0) B147(0) B148(0) B149(0) B150(0) B151(0) B152(0)
 B153(0) B154(2) B155(0) B156(0) B157(0) B158(0) B159(2) B160(0) B161(0)
 B162(0) B163(2) B164(0) B165(0) B166(0) B167(0) B168(0) B169(0) B170(0)
 B171(0) B172(0) B173(0) B174(0) B175(0) B176(0) B177(0) B178(0) B179(0)
 B180(0) B181(0) B182(2) B183(0) B184(0) B185(0) B186(2) B187(0) B188(0)
 B189(2) B190(0) B191(2) B192(0) B193(0) B194(0) B195(0) B196(0) B197(0)
 B198(0) B199(0) B200(0) B201(0) B202(0) B203(0) B204(0) B205(2) B206(0)
 B207(0) B208(2) B209(0) B210(0) B211(0) B212(2) B213(0) B214(0) B215(0)
 B216(0) B217(0) B218(0) B219(0) B220(0) B221(0) B222(0) B223(0) B224(0)
 B225(0) B226(0) B227(2) B228(0) B229(0) B230(0) B231(0) B232(0) B233(0)
 B234(0) B235(0) B236(0) B237(0) B238(0) B239(0) B240(0) B241(0) B242(0)
 B243(0) B244(0) B245(0) B246(0) B247(0) B248(0) B249(0) B250(0) B251(0)
 B252(2) B253(0) B254(0) B255(0) B256(0) B257(2) B258(0) B259(0) B260(0)
 B261(0) B262(2) B263(0) B264(0) B265(0) B266(0) B267(0) B268(0) B269(0)
 B270(0) B271(0) B272(0) B273(0) B274(0) B275(0) B276(0) B277(0) B278(0)
 B279(2) B280(0) B281(0) B282(0) B283(2) B284(0) B285(0) B286(0) B287(0)
 B288(0) B289(0) B290(0) B291(0) B292(0) B293(0) B294(0) B295(0) B296(0)
 B297(0) B298(0) B299(0) B300(0) B301(0) B302(0) B303(0) B304(0) B305(0)
 B306(0) B307(0) B308(0) B309(0) B310(0) B311(0) B312(0) B313(0) B314(0)
 B315(0) B316(0) B317(0) B318(0) B319(0) B320(0) B321(0) B322(0) B323(0)
 B324(0) B325(0) B326(0) B327(0) B328(0) B329(2) B330(0) B331(0) B332(0)
 B333(0) B334(2) B335(0) B336(0) B337(0) B338(0) B339(0) B340(0) B341(0)
 B342(0) B343(0) B344(0) B345(0) B346(0) B347(0) B348(0) B349(0) B350(0)
 B351(0) B352(2) B353(0) B354(0) B355(0) B356(2) B357(0) B358(0) B359(0)
 B360(0) B361(0) B362(0) B363(0) B364(0) B365(0) B366(0) B367(0) B368(0)
 B369(0) B370(0) B371(0) B372(0) B373(0) B374(0) B375(0) B376(0) B377(0)
 B378(2) B379(0) B380(0) B381(2) B382(0) B383(2) B384(0) B385(0) B386(0)
 B387(0) B388(0) B389(0) B390(0) B391(0) B392(0) B393(0) B394(0) B395(0)
 B396(0) B397(0) B398(0) B399(0) B400(0) B401(0) B402(0) B403(2) B404(0)
 B405(0) B406(0) B407(0) B408(0) B409(0) B410(0) B411(0) B412(0) B413(0)
 B414(0) B415(0) B416(0) B417(0) B418(0) B419(0) B420(0) B421(0) B422(0)
 B423(0) B424(0) B425(0) B426(0) B427(0) B428(2) B429(0) B430(0) B431(0)
 B432(0) B433(0) B434(0) B435(0) B436(0) B437(0) B438(0) B439(0) B440(0)
 B441(0) B442(0) B443(0) B444(0) B445(0) B446(0) B447(0) B448(0) B449(0)
 B450(0) B451(0) B452(0) B453(0) B454(2) B455(0) B456(0) B457(0) B458(0)
 B459(0) B460(0) B461(0) B462(0) B463(0) B464(0) B465(0) B466(0) B467(0)
 B468(0) B469(0) B470(0) B471(0) B472(0) B473(0) B474(0) B475(0) B476(0)
 B477(2) B478(0) B479(2) B480(0) B481(0) B482(0) B483(0) B484(0) B485(0)
 B486(0) B487(0) B488(0) B489(0) B490(0) B491(0) B492(0) B493(0) B494(0)
 B495(0) B496(0) B497(0) B498(0) B499(0) B500(0) B501(0) B502(0) B503(0)
 B504(0) B505(0) B506(0) B507(0) B508(0) B509(0) B510(0) B511(0) B512(0)
 B513(0) B514(0) B515(0) B516(0) B517(0) B518(0) B519(0) B520(0) B521(0)
 B522(0) B523(0) B524(0) B525(0) B526(0) B527(0) B528(0) B529(0) B530(0)
 B531(0) B532(0) B533(0) B534(0) B535(0) B536(0) B537(0) B538(0) B539(0)
 B540(0) B541(0) B542(0) B543(0) B544(0) B545(0) B546(0) B547(0) B548(0)
 B549(0) B550(0) B551(0) B552(0) B553(0) B554(0) B555(0) B556(0) B557(0)
 B558(0) B559(0) B560(0) B561(0) B562(0) B563(0) B564(0) B565(0) B566(0)
 B567(0) B568(0) B569(0) B570(0) B571(0) B572(0) B573(0) B574(0) B575(0)
 B576(0) B577(0) B578(0) B579(0) B580(0) B581(0) B582(0) B583(0) B584(0)
 B585(0) B586(0) B587(0) B588(0) B589(0) B590(0) B591(0) B592(0) B593(0)
 B594(0) B595(0) B596(0) B597(0) B598(0) B599(0) B625(0) B626(0) B627(0)
 B628(0) B629(3) B630(0) B631(0) B632(0) B633(0) B634(3) B635(0) B636(0)
 B637(0) B638(0) B639(3) B640(0) B641(0) B642(0) B643(3) B644(0) B645(0)
 B646(0) B647(0) B648(3)
Generals
 I600(12) I601(13) I602(13) I603(15) I604(11) I605(12) I606(15) I607(13)
 I608(9) I609(15) I610(12) I611(9) I612(13) I613(13) I614(17) I615(12)
 I616(13) I617(13) I618(17) I619(12) I620(13) I621(13) I622(13) I623(15)
 I624(1)
End
